Route 1: 41 47 116 56 72 199 131 62 33 190 36 192 74 188 59 158 144 34 25 180 85 164 148 163 70 53 169 154 174 89 133 126 79 161 166 157 26 90 58 5 57 86 45 151 78 181 183 171 99 168 55 96 67 18 60 102 75 115 23 111 80
Route 2: 196 186 145 200 107 38 95 128 122 112 167 178 48 71 185 191 125 143 42 119 184 197 127 146 32 13 194 114 21 40 6 27 193 159 44 132 139 43 129 65 92 69 138 124 156 24 187 68 7 136 50 173 22 11
Route 3: 61 49 120 37 51 172 175 81 179 137 117 162 28 35 97 177 94 149 82 63 104 106 134 108 76 182 100 54 2 3 4 165 110 12 109 135 20 30 170 189 46 93 198 10 105 123 84 64 142 91 14 83 87 113 153 73
Route 4: 8 29 103 152 195 88 118 155 140 150 141 66 9 17 176 130 98 16 19 160 101 77 121 147 1 52 39 15 31
Vehicles: 4
Distance: 4070.85
